NAME : ts225.68340.tour
COMMENT : Length = 68340
COMMENT : Found by LKH [Keld Helsgaun] Sat May 25 06:41:09 2013
TYPE : TOUR
DIMENSION : 45
TOUR_SECTION
128
5
8
9
138
139
40
143
17
20
21
148
48
172
173
71
68
67
188
86
88
90
93
96
222
223
121
118
116
113
111
208
209
105
203
202
78
178
55
57
59
34
33
30
129
-1
EOF
